10J3M/DAT/10J3MNNA-9.dat
10 3
21.2928 453.3833
21.464 460.7033
26.8984 723.5239
26.7091 713.376
33.6267 1130.755
18.0598 326.1564
32.6664 1067.0937
29.6446 878.8023
17.8686 319.2869
31.4094 986.5504
7059.6312