10J3M/SOL/10J3MNNA-9.sol
solution status: optimal solution found
objective value:                              92.1851
x#1#2                               0.892858903335646 	(obj:0)
x#1#3                               0.107141096664353 	(obj:0)
x#2#2                                               1 	(obj:0)
x#3#3                                               1 	(obj:0)
x#4#1                                               1 	(obj:0)
x#5#1                                               1 	(obj:0)
x#6#3                                               1 	(obj:0)
x#7#1                               0.986401861853535 	(obj:0)
x#7#3                              0.0135981381464649 	(obj:0)
x#8#2                                               1 	(obj:0)
x#9#3                                               1 	(obj:0)
x#10#2                                              1 	(obj:0)
z                                             92.1851 	(obj:1)
